--- Job M1_1_E1.gms Start 11/27/25 08:11:03 51.4.0 91cb996b WEX-WEI x86 64bit/MS Windows
--- Applying:
    C:\GAMS\51\gmsprmNT.txt
--- GAMS Parameters defined
    Input "C:\Users\pm.deoliveiradejes\Dropbox\Curso EDCO\AC&CE\GitHub AGyCE\AGyCE-main\M1_Optimization\Ejemplo_1_LP\gams\M1_1_E1.gms"
    PageSize 0
    ScrDir "C:\Users\pm.deoliveiradejes\Dropbox\Curso EDCO\AC&CE\GitHub AGyCE\AGyCE-main\M1_Optimization\Ejemplo_1_LP\gams\225a\"
    SysDir C:\GAMS\51\
    LogOption 3
    AppendLog 1
    ErrMsg 1
    ErrorLog 99
    IDE 1
    LstTitleLeftAligned 1
Licensee: GAMS Demo, for EULA and demo limitations see   G250826+0003Cc-GEN
          https://www.gams.com/latest/docs/UG%5FLicense.html         DC0000
          C:\GAMS\51\gamslice.txt
          v:2                                                              
          Demo license for demonstration and instructional purposes only
System information: 4 physical cores and 8 Gb physical memory detected
GAMS 51.4.0   Copyright (C) 1987-2025 GAMS Development. All rights reserved
--- Starting compilation
--- M1_1_E1.gms(12) 2 Mb
--- Starting execution: elapsed 0:00:00.043
--- Generating LP model LP
--- M1_1_E1.gms(10) 3 Mb
---   3 rows  4 columns  10 non-zeroes
--- Range statistics (absolute non-zero finite values)
--- RHS       [min, max] : [ 1.000E+01, 1.500E+01] - Zero values observed as well
--- Bound     [min, max] : [        NA,        NA] - Zero values observed as well
--- Matrix    [min, max] : [ 1.000E+00, 5.000E+00]
--- Executing CPLEX (Solvelink=2): elapsed 0:00:00.315

IBM ILOG CPLEX   51.4.0 91cb996b Nov 10, 2025          WEI x86 64bit/MS Window

*** This solver runs with a demo license. No commercial use.
--- GMO setup time: 0.00s
--- GMO memory 0.50 Mb (peak 0.50 Mb)
--- Dictionary memory 0.00 Mb
--- Cplex 22.1.2.0 link memory 0.00 Mb (peak 0.00 Mb)
--- Starting Cplex

Version identifier: 22.1.2.0 | 2024-11-25 | 0edbb82fd
CPXPARAM_Advance                                 0
CPXPARAM_Simplex_Display                         2
CPXPARAM_MIP_Display                             4
CPXPARAM_MIP_Pool_Capacity                       0
CPXPARAM_MIP_Tolerances_AbsMIPGap                0
Tried aggregator 1 time.
LP Presolve eliminated 0 rows and 1 columns.
Reduced LP has 2 rows, 3 columns, and 6 nonzeros.
Presolve time = 0.00 sec. (0.00 ticks)

Iteration      Dual Objective            In Variable           Out Variable
     1  I            0.000000                     x2              eq2 slack
     2              28.333333                     x1              eq1 slack

--- LP status (1): optimal.
--- Cplex Time: 0.03sec (det. 0.01 ticks)


Optimal solution found
Objective:           28.333333

--- Reading solution for model LP
--- Executing after solve: elapsed 0:00:00.862
--- M1_1_E1.gms(12) 3 Mb
--- GDX File (execute_unload) C:\Users\pm.deoliveiradejes\Dropbox\Curso EDCO\AC&CE\GitHub AGyCE\AGyCE-main\M1_Optimization\Ejemplo_1_LP\gams\Results M1_1_LP_E1.gdx
*** Status: Normal completion
--- Job M1_1_E1.gms Stop 11/27/25 08:11:04 elapsed 0:00:00.866
Cannot delete directory: 225a
